data/solutions/recovery/degenerate/intermediate/flexible/degenerate_intermediate_instance23/80.sol
Elapsed time: 100.08
Upper bound: 226920089.0
Planning weighted value: 9.43914860257e+11
C[0]=226920089.0
C[1]=226896105.0
C[2]=226848689.0
C[3]=226481981.0
C[4]=225963803.0
C[5]=225796406.0
C[6]=225398729.0
C[7]=225077057.0
C[8]=225019016.0
C[9]=224896015.0
C[10]=223108010.0
C[11]=0.0
y[0]=1
y[1]=6
y[2]=8
y[3]=4
y[4]=8
y[5]=1
y[6]=4
y[7]=6
y[8]=10
y[9]=5
y[10]=3
y[11]=6
y[12]=2
y[13]=5
y[14]=2
y[15]=4
y[16]=1
y[17]=0
y[18]=5
y[19]=9
y[20]=7
y[21]=9
y[22]=8
y[23]=4
y[24]=7
y[25]=2
y[26]=0
y[27]=2
y[28]=3
y[29]=7
y[30]=4
y[31]=10
y[32]=10
y[33]=9
y[34]=3
y[35]=2
y[36]=4
y[37]=10
y[38]=3
y[39]=1
y[40]=6
y[41]=10
y[42]=8
y[43]=9
y[44]=2
y[45]=1
y[46]=10
y[47]=5
y[48]=8
y[49]=4
y[50]=6
y[51]=10
y[52]=6
y[53]=8
y[54]=1
y[55]=1
y[56]=0
y[57]=3
y[58]=2
y[59]=8
y[60]=5
y[61]=7
y[62]=7
y[63]=0
y[64]=10
y[65]=3
y[66]=5
y[67]=1
y[68]=0
y[69]=9
y[70]=5
y[71]=5
y[72]=9
y[73]=2
y[74]=5
y[75]=4
y[76]=7
y[77]=1
