data/solutions/recovery/degenerate/intermediate/flexible/degenerate_intermediate_instance23/80.log

Log started (V12.6.3.0) Sat Apr 21 16:40:55 2018

New value for default parallel thread count: 1

Problem '/tmp/tmpgr3Xcq.pyomo.lp' read.
Read time = 0.01 sec. (0.83 ticks)

Problem name         : /tmp/tmpgr3Xcq.pyomo.lp
Objective sense      : Minimize
Variables            :     950  [Nneg: 1,  Binary: 936,  General Integer: 13]
Objective nonzeros   :       1
Linear constraints   :     182  [Less: 90,  Equal: 92]
  Nonzeros           :   59401
  RHS nonzeros       :     157

Variables            : Min LB: 0.000000         Max UB: 1.000000       
Objective nonzeros   : Min   : 1.000000         Max   : 1.000000       
Linear constraints   :
  Nonzeros           : Min   : 1.000000         Max   : 6.145599e+07   
  RHS nonzeros       : Min   : 1.000000         Max   : 8.000000       
Tried aggregator 2 times.
MIP Presolve eliminated 82 rows and 141 columns.
Aggregator did 5 substitutions.
Reduced MIP has 95 rows, 804 columns, and 2237 nonzeros.
Reduced MIP has 792 binaries, 12 generals, 0 SOSs, and 0 indicators.
Presolve time = 0.01 sec. (10.78 ticks)
Found incumbent of value 7.9163856e+08 after 0.01 sec. (12.29 ticks)
Probing time = 0.00 sec. (1.59 ticks)
Tried aggregator 1 time.
Reduced MIP has 95 rows, 804 columns, and 2237 nonzeros.
Reduced MIP has 792 binaries, 12 generals, 0 SOSs, and 0 indicators.
Presolve time = 0.00 sec. (1.14 ticks)
Probing time = 0.00 sec. (1.59 ticks)
Clique table members: 72.
MIP emphasis: balance optimality and feasibility.
MIP search method: dynamic search.
Parallel mode: none, using 1 thread.
Root relaxation solution time = 0.00 sec. (1.59 ticks)

        Nodes                                         Cuts/
   Node  Left     Objective  IInf  Best Integer    Best Bound    ItCnt     Gap

*     0+    0                       7.91639e+08        0.0000           100.00%
      0     0   2.25673e+08    30   7.91639e+08   2.25673e+08      140   71.49%
      0     0   2.25673e+08    18   7.91639e+08      Fract: 3      151   71.49%
      0     0   2.25673e+08    32   7.91639e+08      Fract: 7      185   71.49%
*     0+    0                       2.56326e+08   2.25673e+08            11.96%
*     0+    0                       2.55162e+08   2.25673e+08            11.56%
*     0+    0                       2.53554e+08   2.25673e+08            11.00%
*     0+    0                       2.39892e+08   2.25673e+08             5.93%
      0     2   2.25673e+08    20   2.39892e+08   2.25673e+08      185    5.93%
Elapsed time = 0.05 sec. (56.89 ticks, tree = 0.01 MB, solutions = 5)
*    30+   27                       2.34254e+08   2.25673e+08             3.66%
*    40+   33                       2.34234e+08   2.25673e+08             3.65%
*   110+   75                       2.33296e+08   2.25673e+08             3.27%
*   210+  150                       2.32949e+08   2.25673e+08             3.12%
*   499+  399                       2.32597e+08   2.25673e+08             2.98%
*   499+  387                       2.30914e+08   2.25673e+08             2.27%
*   499+  384                       2.30762e+08   2.25673e+08             2.21%
*   499+  384                       2.30622e+08   2.25673e+08             2.15%
*   499+  384                       2.30577e+08   2.25673e+08             2.13%
*   500+  301                       2.30180e+08   2.25673e+08             1.96%
    500   303   2.29805e+08    24   2.30180e+08   2.25673e+08     3312    1.96%
    501   304   2.25673e+08    29   2.30180e+08   2.25673e+08     3734    1.96%
    502   305   2.25673e+08    28   2.30180e+08   2.25673e+08     3742    1.96%
    503   306   2.25673e+08    27   2.30180e+08   2.25673e+08     3753    1.96%
    504   307   2.25673e+08    26   2.30180e+08   2.25673e+08     3756    1.96%
    505   307   2.25673e+08    26   2.30180e+08   2.25673e+08     3759    1.96%
    506   308   2.25673e+08    25   2.30180e+08   2.25673e+08     3760    1.96%
    507   309   2.25673e+08    28   2.30180e+08   2.25673e+08     3765    1.96%
    508   309   2.25673e+08    24   2.30180e+08   2.25673e+08     3771    1.96%
*  1201+  215                       2.29058e+08   2.25673e+08             1.48%
*  1201+  214                       2.28917e+08   2.25673e+08             1.42%
   1248   231   2.27453e+08     9   2.28917e+08   2.25673e+08     6271    1.42%
Elapsed time = 0.85 sec. (1010.63 ticks, tree = 0.14 MB, solutions = 17)
*  1301+  244                       2.28640e+08   2.25673e+08             1.30%
*  1701+  503                       2.28252e+08   2.25673e+08             1.13%
*  1701+  502                       2.28063e+08   2.25673e+08             1.05%
   2444   961   2.25673e+08    30   2.28063e+08   2.25673e+08    11265    1.05%
   2445   962   2.25673e+08    30   2.28063e+08   2.25673e+08    11270    1.05%
   2446   963   2.25673e+08    31   2.28063e+08   2.25673e+08    11274    1.05%
   2447   964   2.25673e+08    29   2.28063e+08   2.25673e+08    11276    1.05%
   2448   965   2.25673e+08    31   2.28063e+08   2.25673e+08    11278    1.05%
   2449   966   2.25673e+08    30   2.28063e+08   2.25673e+08    11279    1.05%
   2450   967   2.25673e+08    30   2.28063e+08   2.25673e+08    11280    1.05%
   2451   968   2.25673e+08    30   2.28063e+08   2.25673e+08    11281    1.05%
   2452   969   2.25673e+08    29   2.28063e+08   2.25673e+08    11283    1.05%
   2453   970   2.25673e+08    30   2.28063e+08   2.25673e+08    11285    1.05%
Elapsed time = 1.68 sec. (1971.00 ticks, tree = 0.61 MB, solutions = 20)
   5921  3468        cutoff         2.28063e+08   2.25673e+08    29378    1.05%
   5922  3467        cutoff         2.28063e+08   2.25673e+08    29451    1.05%
   5923  3468   2.25673e+08    26   2.28063e+08   2.25673e+08    29478    1.05%
   5924  3469   2.25673e+08    25   2.28063e+08   2.25673e+08    29486    1.05%
   5925  3470   2.25673e+08    28   2.28063e+08   2.25673e+08    29489    1.05%
   5926  3471   2.25673e+08    26   2.28063e+08   2.25673e+08    29491    1.05%
   5927  3472   2.25673e+08    25   2.28063e+08   2.25673e+08    29495    1.05%
   5928  3473   2.25673e+08    25   2.28063e+08   2.25673e+08    29499    1.05%
   5929  3474   2.25673e+08    31   2.28063e+08   2.25673e+08    29506    1.05%
   5930  3475   2.25673e+08    29   2.28063e+08   2.25673e+08    29507    1.05%
Elapsed time = 2.43 sec. (2935.50 ticks, tree = 2.13 MB, solutions = 20)
   8557  5470    infeasible         2.28063e+08   2.25673e+08    51251    1.05%
   8558  5469        cutoff         2.28063e+08   2.25673e+08    51293    1.05%
   8559  5468    infeasible         2.28063e+08   2.25673e+08    51368    1.05%
   8560  5467    infeasible         2.28063e+08   2.25673e+08    51397    1.05%
   8561  5466        cutoff         2.28063e+08   2.25673e+08    51464    1.05%
   8562  5465    infeasible         2.28063e+08   2.25673e+08    51528    1.05%
   8563  5464    infeasible         2.28063e+08   2.25673e+08    51528    1.05%
   8564  5463    infeasible         2.28063e+08   2.25673e+08    51528    1.05%
   8565  5462    infeasible         2.28063e+08   2.25673e+08    51528    1.05%
   8566  5461    infeasible         2.28063e+08   2.25673e+08    51528    1.05%
Elapsed time = 3.16 sec. (3895.52 ticks, tree = 3.35 MB, solutions = 20)
* 10461+ 6155                       2.27012e+08   2.25673e+08             0.59%
  10461  6157   2.25673e+08    36   2.27012e+08   2.25673e+08    66016    0.59%
  10462  6156        cutoff         2.27012e+08   2.25673e+08    66081    0.59%
  10463  6157   2.25673e+08    22   2.27012e+08   2.25673e+08    66088    0.59%
  10464  6158   2.25673e+08    20   2.27012e+08   2.25673e+08    66091    0.59%
  10465  6159   2.25673e+08    21   2.27012e+08   2.25673e+08    66094    0.59%
  10466  6160   2.25673e+08    22   2.27012e+08   2.25673e+08    66103    0.59%
  10467  6161   2.25673e+08    22   2.27012e+08   2.25673e+08    66110    0.59%
  10468  6162   2.25673e+08    21   2.27012e+08   2.25673e+08    66113    0.59%
  10469  6163   2.25673e+08    18   2.27012e+08   2.25673e+08    66115    0.59%
  10470  6164   2.25673e+08    20   2.27012e+08   2.25673e+08    66119    0.59%
Elapsed time = 4.00 sec. (4960.21 ticks, tree = 3.71 MB, solutions = 21)
  12220  7051   2.25699e+08    39   2.27012e+08   2.25673e+08    90267    0.59%
  12221  7052   2.25699e+08    38   2.27012e+08   2.25673e+08    90268    0.59%
  12222  7053   2.25702e+08    37   2.27012e+08   2.25673e+08    90271    0.59%
  12223  7054   2.25703e+08    38   2.27012e+08   2.25673e+08    90272    0.59%
  12224  7055   2.25703e+08    38   2.27012e+08   2.25673e+08    90274    0.59%
  12225  7056   2.25703e+08    38   2.27012e+08   2.25673e+08    90275    0.59%
  12226  7057   2.25703e+08    38   2.27012e+08   2.25673e+08    90276    0.59%
  12227  7058   2.25703e+08    39   2.27012e+08   2.25673e+08    90277    0.59%
  12228  7059   2.25703e+08    38   2.27012e+08   2.25673e+08    90279    0.59%
  12229  7060   2.25704e+08    38   2.27012e+08   2.25673e+08    90282    0.59%
Elapsed time = 4.74 sec. (5917.33 ticks, tree = 4.24 MB, solutions = 21)
  14208  8171   2.25834e+08    37   2.27012e+08   2.25673e+08   114903    0.59%
  14209  8170    infeasible         2.27012e+08   2.25673e+08   114960    0.59%
  14210  8171   2.25834e+08    39   2.27012e+08   2.25673e+08   114971    0.59%
  14211  8172   2.25834e+08    38   2.27012e+08   2.25673e+08   114981    0.59%
  14212  8173   2.25834e+08    39   2.27012e+08   2.25673e+08   114984    0.59%
  14213  8174   2.25834e+08    36   2.27012e+08   2.25673e+08   114987    0.59%
  14214  8175   2.25834e+08    38   2.27012e+08   2.25673e+08   114993    0.59%
  14215  8176   2.25834e+08    38   2.27012e+08   2.25673e+08   115003    0.59%
  14216  8177   2.25834e+08    35   2.27012e+08   2.25673e+08   115006    0.59%
  14217  8178   2.25834e+08    32   2.27012e+08   2.25673e+08   115016    0.59%
Elapsed time = 5.47 sec. (6874.13 ticks, tree = 4.89 MB, solutions = 21)
  16317  9843   2.26060e+08    36   2.27012e+08   2.25673e+08   139790    0.59%
  16318  9844   2.26060e+08    31   2.27012e+08   2.25673e+08   139794    0.59%
  16319  9845   2.26064e+08    36   2.27012e+08   2.25673e+08   139797    0.59%
  16320  9846   2.26064e+08    30   2.27012e+08   2.25673e+08   139798    0.59%
  16321  9847   2.26064e+08    36   2.27012e+08   2.25673e+08   139800    0.59%
  16322  9848   2.26064e+08    30   2.27012e+08   2.25673e+08   139801    0.59%
  16323  9849   2.26065e+08    30   2.27012e+08   2.25673e+08   139802    0.59%
  16324  9850   2.26065e+08    29   2.27012e+08   2.25673e+08   139803    0.59%
  16325  9851   2.26065e+08    31   2.27012e+08   2.25673e+08   139806    0.59%
  16326  9852   2.26065e+08    29   2.27012e+08   2.25673e+08   139807    0.59%
Elapsed time = 6.17 sec. (7829.35 ticks, tree = 6.10 MB, solutions = 21)
  17997 11039   2.25794e+08    44   2.27012e+08   2.25673e+08   166188    0.59%
  17998 11040   2.25794e+08    45   2.27012e+08   2.25673e+08   166195    0.59%
  17999 11041   2.25794e+08    43   2.27012e+08   2.25673e+08   166199    0.59%
  18000 11042   2.25800e+08    41   2.27012e+08   2.25673e+08   166204    0.59%
  18001 11043   2.25805e+08    46   2.27012e+08   2.25673e+08   166217    0.59%
  18002 11044   2.25805e+08    47   2.27012e+08   2.25673e+08   166223    0.59%
  18003 11045   2.25805e+08    40   2.27012e+08   2.25673e+08   166230    0.59%
  18004 11046   2.25805e+08    40   2.27012e+08   2.25673e+08   166236    0.59%
  18005 11047   2.25806e+08    40   2.27012e+08   2.25673e+08   166244    0.59%
  18006 11048   2.25806e+08    38   2.27012e+08   2.25673e+08   166247    0.59%
Elapsed time = 6.91 sec. (8785.54 ticks, tree = 6.83 MB, solutions = 21)
  19403 12067   2.26512e+08    41   2.27012e+08   2.25673e+08   192564    0.59%
  19404 12066        cutoff         2.27012e+08   2.25673e+08   192566    0.59%
  19405 12065    infeasible         2.27012e+08   2.25673e+08   192566    0.59%
  19406 12066   2.25673e+08    31   2.27012e+08   2.25673e+08   192676    0.59%
  19407 12067   2.25673e+08    31   2.27012e+08   2.25673e+08   192679    0.59%
  19408 12068   2.25686e+08    37   2.27012e+08   2.25673e+08   192738    0.59%
  19409 12067    infeasible         2.27012e+08   2.25673e+08   192776    0.59%
  19410 12066        cutoff         2.27012e+08   2.25673e+08   192780    0.59%
  19411 12066   2.26303e+08    39   2.27012e+08   2.25673e+08   193071    0.59%
  23407 15036   2.25690e+08    35   2.27012e+08   2.25673e+08   268499    0.59%
Elapsed time = 9.72 sec. (12601.55 ticks, tree = 9.17 MB, solutions = 21)
  27801 18207   2.25673e+08    48   2.27012e+08   2.25673e+08   360492    0.59%
  27802 18208   2.25673e+08    48   2.27012e+08   2.25673e+08   360516    0.59%
  27803 18209   2.25673e+08    43   2.27012e+08   2.25673e+08   360532    0.59%
  27804 18210   2.25673e+08    44   2.27012e+08   2.25673e+08   360551    0.59%
  27805 18211   2.25673e+08    51   2.27012e+08   2.25673e+08   360604    0.59%
  27806 18210        cutoff         2.27012e+08   2.25673e+08   360733    0.59%
  27807 18211   2.25673e+08    46   2.27012e+08   2.25673e+08   360762    0.59%
  27808 18212   2.25673e+08    46   2.27012e+08   2.25673e+08   360764    0.59%
  27809 18213   2.25673e+08    46   2.27012e+08   2.25673e+08   360766    0.59%
  27810 18214   2.25673e+08    44   2.27012e+08   2.25673e+08   360767    0.59%
Elapsed time = 12.48 sec. (16427.25 ticks, tree = 11.51 MB, solutions = 21)
* 30501+19603                       2.26920e+08   2.25673e+08             0.55%
  31123 20099        cutoff         2.26920e+08   2.25673e+08   446784    0.55%
  31124 20100   2.25673e+08    43   2.26920e+08   2.25673e+08   446872    0.55%
  31125 20101   2.25673e+08    41   2.26920e+08   2.25673e+08   446902    0.55%
  31126 20102   2.25673e+08    46   2.26920e+08   2.25673e+08   446983    0.55%
  31127 20103   2.25673e+08    40   2.26920e+08   2.25673e+08   446985    0.55%
  31128 20104   2.25673e+08    42   2.26920e+08   2.25673e+08   447083    0.55%
  31129 20105   2.25673e+08    39   2.26920e+08   2.25673e+08   447092    0.55%
  31130 20106   2.25673e+08    39   2.26920e+08   2.25673e+08   447111    0.55%
  31131 20107   2.25673e+08    36   2.26920e+08   2.25673e+08   447121    0.55%
  31132 20108   2.25673e+08    31   2.26920e+08   2.25673e+08   447132    0.55%
Elapsed time = 15.28 sec. (20259.55 ticks, tree = 12.64 MB, solutions = 22)
  33962 22263   2.25806e+08    48   2.26920e+08   2.25673e+08   534407    0.55%
  33963 22264   2.25806e+08    40   2.26920e+08   2.25673e+08   534423    0.55%
  33964 22265   2.25806e+08    42   2.26920e+08   2.25673e+08   534428    0.55%
  33965 22266   2.25806e+08    41   2.26920e+08   2.25673e+08   534429    0.55%
  33966 22267   2.25806e+08    37   2.26920e+08   2.25673e+08   534436    0.55%
  33967 22268   2.25806e+08    41   2.26920e+08   2.25673e+08   534447    0.55%
  33968 22269   2.25806e+08    40   2.26920e+08   2.25673e+08   534451    0.55%
  33969 22270   2.25806e+08    41   2.26920e+08   2.25673e+08   534453    0.55%
  33970 22271   2.25806e+08    41   2.26920e+08   2.25673e+08   534456    0.55%
  33971 22272   2.25806e+08    40   2.26920e+08   2.25673e+08   534458    0.55%
Elapsed time = 17.98 sec. (24086.12 ticks, tree = 13.90 MB, solutions = 22)
  36737 24136   2.25970e+08    35   2.26920e+08   2.25673e+08   615690    0.55%
  36738 24135        cutoff         2.26920e+08   2.25673e+08   615705    0.55%
  36739 24134        cutoff         2.26920e+08   2.25673e+08   615710    0.55%
  36740 24133        cutoff         2.26920e+08   2.25673e+08   615741    0.55%
  36741 24132    infeasible         2.26920e+08   2.25673e+08   615858    0.55%
  36742 24133   2.25834e+08    40   2.26920e+08   2.25673e+08   616040    0.55%
  36743 24132        cutoff         2.26920e+08   2.25673e+08   616045    0.55%
  36744 24131        cutoff         2.26920e+08   2.25673e+08   616056    0.55%
  36745 24132   2.25673e+08    27   2.26920e+08   2.25673e+08   616144    0.55%
  36746 24133   2.25673e+08    23   2.26920e+08   2.25673e+08   616170    0.55%
Elapsed time = 20.76 sec. (27923.79 ticks, tree = 15.09 MB, solutions = 22)
  39497 26227   2.25673e+08    45   2.26920e+08   2.25673e+08   695353    0.55%
  39498 26228   2.25673e+08    45   2.26920e+08   2.25673e+08   695354    0.55%
  39499 26229   2.25673e+08    45   2.26920e+08   2.25673e+08   695355    0.55%
  39500 26230   2.25673e+08    45   2.26920e+08   2.25673e+08   695356    0.55%
  39501 26231   2.25673e+08    46   2.26920e+08   2.25673e+08   695357    0.55%
  39502 26232   2.25673e+08    33   2.26920e+08   2.25673e+08   695393    0.55%
  39503 26233   2.25673e+08    32   2.26920e+08   2.25673e+08   695403    0.55%
  39504 26232        cutoff         2.26920e+08   2.25673e+08   695450    0.55%
  39505 26231        cutoff         2.26920e+08   2.25673e+08   695482    0.55%
  39506 26232   2.25673e+08    51   2.26920e+08   2.25673e+08   695685    0.55%
Elapsed time = 23.52 sec. (31750.76 ticks, tree = 16.38 MB, solutions = 22)
  41784 27815        cutoff         2.26920e+08   2.25673e+08   781981    0.55%
  41785 27816   2.25773e+08    44   2.26920e+08   2.25673e+08   782266    0.55%
  41786 27817   2.25773e+08    39   2.26920e+08   2.25673e+08   782274    0.55%
  41787 27818   2.25773e+08    36   2.26920e+08   2.25673e+08   782277    0.55%
  41788 27819   2.25773e+08    36   2.26920e+08   2.25673e+08   782281    0.55%
  41789 27820   2.25773e+08    36   2.26920e+08   2.25673e+08   782282    0.55%
  41790 27821   2.25773e+08    37   2.26920e+08   2.25673e+08   782286    0.55%
  41791 27822   2.25773e+08    41   2.26920e+08   2.25673e+08   782304    0.55%
  41792 27823   2.25773e+08    41   2.26920e+08   2.25673e+08   782306    0.55%
  41793 27824   2.25773e+08    41   2.26920e+08   2.25673e+08   782324    0.55%
Elapsed time = 26.61 sec. (35583.06 ticks, tree = 17.37 MB, solutions = 22)
  43981 28942   2.26159e+08    36   2.26920e+08   2.25673e+08   862333    0.55%
  43982 28941        cutoff         2.26920e+08   2.25673e+08   862381    0.55%
  43983 28940        cutoff         2.26920e+08   2.25673e+08   862384    0.55%
  43984 28940   2.26847e+08    41   2.26920e+08   2.25673e+08   862564    0.55%
  43985 28939        cutoff         2.26920e+08   2.25673e+08   862573    0.55%
  43986 28938        cutoff         2.26920e+08   2.25673e+08   862758    0.55%
  43987 28939   2.25673e+08    28   2.26920e+08   2.25673e+08   862896    0.55%
  43988 28940   2.25673e+08    29   2.26920e+08   2.25673e+08   862909    0.55%
  43989 28941   2.25673e+08    29   2.26920e+08   2.25673e+08   862928    0.55%
  43990 28942   2.25673e+08    36   2.26920e+08   2.25673e+08   863036    0.55%
Elapsed time = 30.35 sec. (39427.78 ticks, tree = 18.09 MB, solutions = 22)
  46399 30335   2.25841e+08    42   2.26920e+08   2.25673e+08   941407    0.55%
  46400 30336   2.25841e+08    34   2.26920e+08   2.25673e+08   941440    0.55%
  46401 30337   2.25841e+08    35   2.26920e+08   2.25673e+08   941445    0.55%
  46402 30338   2.25841e+08    38   2.26920e+08   2.25673e+08   941463    0.55%
  46403 30339   2.25849e+08    37   2.26920e+08   2.25673e+08   941520    0.55%
  46404 30340   2.26859e+08    38   2.26920e+08   2.25673e+08   941595    0.55%
  46405 30339        cutoff         2.26920e+08   2.25673e+08   941632    0.55%
  46406 30338        cutoff         2.26920e+08   2.25673e+08   941633    0.55%
  46407 30337    infeasible         2.26920e+08   2.25673e+08   941686    0.55%
  46408 30338   2.25673e+08    40   2.26920e+08   2.25673e+08   941862    0.55%
Elapsed time = 34.05 sec. (43263.06 ticks, tree = 18.97 MB, solutions = 22)
  48895 31818   2.26655e+08    32   2.26920e+08   2.25673e+08  1021598    0.55%
  48896 31817        cutoff         2.26920e+08   2.25673e+08  1021613    0.55%
  48897 31818   2.25773e+08    62   2.26920e+08   2.25673e+08  1022126    0.55%
  48898 31819   2.25773e+08    52   2.26920e+08   2.25673e+08  1022133    0.55%
  48899 31820   2.25773e+08    49   2.26920e+08   2.25673e+08  1022140    0.55%
  48900 31821   2.25773e+08    48   2.26920e+08   2.25673e+08  1022141    0.55%
  48901 31822   2.25773e+08    45   2.26920e+08   2.25673e+08  1022153    0.55%
  48902 31823   2.25773e+08    45   2.26920e+08   2.25673e+08  1022156    0.55%
  48903 31824   2.25773e+08    48   2.26920e+08   2.25673e+08  1022159    0.55%
  48904 31825   2.25773e+08    43   2.26920e+08   2.25673e+08  1022172    0.55%
Elapsed time = 37.83 sec. (47124.76 ticks, tree = 21.53 MB, solutions = 22)
  51328 33549   2.25686e+08    35   2.26920e+08   2.25673e+08  1101790    0.55%
  51329 33548        cutoff         2.26920e+08   2.25673e+08  1101822    0.55%
  51330 33547    infeasible         2.26920e+08   2.25673e+08  1101822    0.55%
  51331 33546        cutoff         2.26920e+08   2.25673e+08  1101897    0.55%
  51332 33545        cutoff         2.26920e+08   2.25673e+08  1101989    0.55%
  51333 33544        cutoff         2.26920e+08   2.25673e+08  1102048    0.55%
  51334 33543    infeasible         2.26920e+08   2.25673e+08  1102106    0.55%
  51335 33542    infeasible         2.26920e+08   2.25673e+08  1102106    0.55%
  51336 33541        cutoff         2.26920e+08   2.25673e+08  1102205    0.55%
  51337 33542   2.25673e+08    42   2.26920e+08   2.25673e+08  1102332    0.55%
Elapsed time = 41.52 sec. (50960.65 ticks, tree = 23.53 MB, solutions = 22)
  53816 35212        cutoff         2.26920e+08   2.25673e+08  1181267    0.55%
  53817 35213   2.25673e+08    36   2.26920e+08   2.25673e+08  1181400    0.55%
  53818 35214   2.25673e+08    32   2.26920e+08   2.25673e+08  1181416    0.55%
  53819 35215   2.25673e+08    32   2.26920e+08   2.25673e+08  1181419    0.55%
  53820 35216   2.25673e+08    32   2.26920e+08   2.25673e+08  1181436    0.55%
  53821 35217   2.25673e+08    33   2.26920e+08   2.25673e+08  1181443    0.55%
  53822 35218   2.25673e+08    28   2.26920e+08   2.25673e+08  1181456    0.55%
  53823 35219   2.25673e+08    31   2.26920e+08   2.25673e+08  1181470    0.55%
  53824 35220   2.25673e+08    32   2.26920e+08   2.25673e+08  1181502    0.55%
  53825 35221   2.25673e+08    31   2.26920e+08   2.25673e+08  1181505    0.55%
Elapsed time = 45.26 sec. (54789.67 ticks, tree = 24.68 MB, solutions = 22)
  56128 36667        cutoff         2.26920e+08   2.25673e+08  1261026    0.55%
  56129 36666    infeasible         2.26920e+08   2.25673e+08  1261026    0.55%
  56130 36667   2.25673e+08    38   2.26920e+08   2.25673e+08  1261090    0.55%
  56131 36668   2.25673e+08    40   2.26920e+08   2.25673e+08  1261102    0.55%
  56132 36669   2.25673e+08    37   2.26920e+08   2.25673e+08  1261104    0.55%
  56133 36670   2.25673e+08    39   2.26920e+08   2.25673e+08  1261105    0.55%
  56134 36671   2.25673e+08    35   2.26920e+08   2.25673e+08  1261113    0.55%
  56135 36672   2.25673e+08    36   2.26920e+08   2.25673e+08  1261118    0.55%
  56136 36673   2.25673e+08    37   2.26920e+08   2.25673e+08  1261119    0.55%
  56137 36674   2.25673e+08    36   2.26920e+08   2.25673e+08  1261120    0.55%
Elapsed time = 48.96 sec. (58624.62 ticks, tree = 25.66 MB, solutions = 22)
  58541 37984   2.25783e+08    76   2.26920e+08   2.25673e+08  1339501    0.55%
  58542 37985   2.26749e+08    65   2.26920e+08   2.25673e+08  1339632    0.55%
  58543 37984        cutoff         2.26920e+08   2.25673e+08  1339646    0.55%
  58544 37983        cutoff         2.26920e+08   2.25673e+08  1339695    0.55%
  58545 37984   2.25673e+08    32   2.26920e+08   2.25673e+08  1339721    0.55%
  58546 37985   2.25673e+08    34   2.26920e+08   2.25673e+08  1339739    0.55%
  58547 37986   2.25673e+08    34   2.26920e+08   2.25673e+08  1339753    0.55%
  58548 37987   2.25673e+08    35   2.26920e+08   2.25673e+08  1339782    0.55%
  58549 37988   2.25673e+08    37   2.26920e+08   2.25673e+08  1339804    0.55%
  58550 37989   2.25673e+08    36   2.26920e+08   2.25673e+08  1339806    0.55%
Elapsed time = 52.65 sec. (62464.47 ticks, tree = 26.56 MB, solutions = 22)
  61491 40045   2.25682e+08    50   2.26920e+08   2.25673e+08  1426936    0.55%
  61492 40046   2.25682e+08    51   2.26920e+08   2.25673e+08  1426942    0.55%
  61493 40047   2.25682e+08    52   2.26920e+08   2.25673e+08  1426954    0.55%
  61494 40048   2.25682e+08    52   2.26920e+08   2.25673e+08  1426955    0.55%
  61495 40049   2.25682e+08    51   2.26920e+08   2.25673e+08  1426960    0.55%
  61496 40050   2.25682e+08    51   2.26920e+08   2.25673e+08  1426961    0.55%
  61497 40051   2.25682e+08    51   2.26920e+08   2.25673e+08  1426971    0.55%
  61498 40052   2.25682e+08    51   2.26920e+08   2.25673e+08  1426972    0.55%
  61499 40053   2.25682e+08    48   2.26920e+08   2.25673e+08  1426981    0.55%
  61500 40054   2.25682e+08    47   2.26920e+08   2.25673e+08  1426982    0.55%
Elapsed time = 56.29 sec. (66285.95 ticks, tree = 27.84 MB, solutions = 22)
  64267 41747   2.26896e+08    13   2.26920e+08   2.25673e+08  1510235    0.55%
  64268 41748   2.26896e+08    13   2.26920e+08   2.25673e+08  1510238    0.55%
  64269 41749   2.26896e+08    12   2.26920e+08   2.25673e+08  1510264    0.55%
  64270 41748        cutoff         2.26920e+08   2.25673e+08  1510266    0.55%
  64271 41749   2.26896e+08    19   2.26920e+08   2.25673e+08  1510289    0.55%
  64272 41750   2.26896e+08    13   2.26920e+08   2.25673e+08  1510375    0.55%
  64273 41749        cutoff         2.26920e+08   2.25673e+08  1510378    0.55%
  64274 41748        cutoff         2.26920e+08   2.25673e+08  1510381    0.55%
  64275 41749   2.25673e+08    28   2.26920e+08   2.25673e+08  1510390    0.55%
  64276 41750   2.26230e+08    41   2.26920e+08   2.25673e+08  1510579    0.55%
Elapsed time = 60.02 sec. (70118.88 ticks, tree = 29.14 MB, solutions = 22)
  66719 42958        cutoff         2.26920e+08   2.25673e+08  1593512    0.55%
  66720 42957    infeasible         2.26920e+08   2.25673e+08  1593595    0.55%
  66721 42956    infeasible         2.26920e+08   2.25673e+08  1593669    0.55%
  66722 42955    infeasible         2.26920e+08   2.25673e+08  1593669    0.55%
  66723 42954    infeasible         2.26920e+08   2.25673e+08  1593669    0.55%
  66724 42953        cutoff         2.26920e+08   2.25673e+08  1593775    0.55%
  66725 42952        cutoff         2.26920e+08   2.25673e+08  1593818    0.55%
  66726 42951    infeasible         2.26920e+08   2.25673e+08  1593818    0.55%
  66727 42950        cutoff         2.26920e+08   2.25673e+08  1593828    0.55%
  66728 42949        cutoff         2.26920e+08   2.25673e+08  1593858    0.55%
Elapsed time = 63.75 sec. (73949.83 ticks, tree = 29.91 MB, solutions = 22)
  68737 43881   2.26177e+08    34   2.26920e+08   2.25673e+08  1677121    0.55%
  68738 43880        cutoff         2.26920e+08   2.25673e+08  1677124    0.55%
  68739 43879    infeasible         2.26920e+08   2.25673e+08  1677124    0.55%
  68740 43878        cutoff         2.26920e+08   2.25673e+08  1677231    0.55%
  68741 43877        cutoff         2.26920e+08   2.25673e+08  1677551    0.55%
  68742 43876        cutoff         2.26920e+08   2.25673e+08  1677580    0.55%
  68743 43875        cutoff         2.26920e+08   2.25673e+08  1677691    0.55%
  68744 43874        cutoff         2.26920e+08   2.25673e+08  1677845    0.55%
  68745 43873    infeasible         2.26920e+08   2.25673e+08  1677845    0.55%
  68746 43872    infeasible         2.26920e+08   2.25673e+08  1677845    0.55%
Elapsed time = 67.52 sec. (77799.79 ticks, tree = 30.72 MB, solutions = 22)
  71089 45211   2.25675e+08    58   2.26920e+08   2.25673e+08  1756405    0.55%
  71090 45212   2.25676e+08    56   2.26920e+08   2.25673e+08  1756406    0.55%
  71091 45213   2.25676e+08    58   2.26920e+08   2.25673e+08  1756433    0.55%
  71092 45214   2.25686e+08    55   2.26920e+08   2.25673e+08  1756450    0.55%
  71093 45213        cutoff         2.26920e+08   2.25673e+08  1756499    0.55%
  71094 45214   2.25688e+08    53   2.26920e+08   2.25673e+08  1756509    0.55%
  71095 45215   2.25696e+08    58   2.26920e+08   2.25673e+08  1756520    0.55%
  71096 45216   2.25710e+08    58   2.26920e+08   2.25673e+08  1756532    0.55%
  71097 45217   2.25710e+08    63   2.26920e+08   2.25673e+08  1756533    0.55%
  71098 45218   2.25713e+08    56   2.26920e+08   2.25673e+08  1756540    0.55%
Elapsed time = 71.19 sec. (81624.16 ticks, tree = 31.93 MB, solutions = 22)
  73202 46437   2.25773e+08    56   2.26920e+08   2.25673e+08  1837668    0.55%
  73203 46438   2.25773e+08    55   2.26920e+08   2.25673e+08  1837669    0.55%
  73204 46439   2.25773e+08    54   2.26920e+08   2.25673e+08  1837670    0.55%
  73205 46438    infeasible         2.26920e+08   2.25673e+08  1837840    0.55%
  73206 46439   2.25773e+08    52   2.26920e+08   2.25673e+08  1837843    0.55%
  73207 46440   2.25773e+08    51   2.26920e+08   2.25673e+08  1837849    0.55%
  73208 46441   2.25773e+08    42   2.26920e+08   2.25673e+08  1837890    0.55%
  73209 46442   2.25773e+08    43   2.26920e+08   2.25673e+08  1837979    0.55%
  73210 46443   2.25773e+08    44   2.26920e+08   2.25673e+08  1837988    0.55%
  73211 46444   2.25773e+08    52   2.26920e+08   2.25673e+08  1838049    0.55%
Elapsed time = 74.92 sec. (85463.39 ticks, tree = 33.50 MB, solutions = 22)
  75500 47861   2.26398e+08    26   2.26920e+08   2.25673e+08  1917856    0.55%
  75501 47862   2.26398e+08    24   2.26920e+08   2.25673e+08  1917870    0.55%
  75502 47863   2.26398e+08    24   2.26920e+08   2.25673e+08  1917871    0.55%
  75503 47864   2.26398e+08    24   2.26920e+08   2.25673e+08  1917877    0.55%
  75504 47864   2.26398e+08    24   2.26920e+08   2.25673e+08  1917926    0.55%
  75505 47865   2.26398e+08    24   2.26920e+08   2.25673e+08  1917930    0.55%
  75506 47866   2.26398e+08    25   2.26920e+08   2.25673e+08  1917941    0.55%
  75507 47867   2.26398e+08    24   2.26920e+08   2.25673e+08  1917942    0.55%
  75508 47868   2.26398e+08    24   2.26920e+08   2.25673e+08  1917949    0.55%
  75509 47869   2.26398e+08    23   2.26920e+08   2.25673e+08  1917980    0.55%
Elapsed time = 78.64 sec. (89284.34 ticks, tree = 34.44 MB, solutions = 22)
  78135 49462   2.25673e+08    27   2.26920e+08   2.25673e+08  1999048    0.55%
  78136 49463   2.25673e+08    25   2.26920e+08   2.25673e+08  1999052    0.55%
  78137 49464   2.25673e+08    24   2.26920e+08   2.25673e+08  1999091    0.55%
  78138 49465   2.25673e+08    27   2.26920e+08   2.25673e+08  1999166    0.55%
  78139 49466   2.25673e+08    23   2.26920e+08   2.25673e+08  1999167    0.55%
  78140 49467   2.25673e+08    23   2.26920e+08   2.25673e+08  1999192    0.55%
  78141 49468   2.25673e+08    23   2.26920e+08   2.25673e+08  1999193    0.55%
  78142 49469   2.25673e+08    24   2.26920e+08   2.25673e+08  1999195    0.55%
  78143 49470   2.25673e+08    47   2.26920e+08   2.25673e+08  1999223    0.55%
  78144 49471   2.25673e+08    45   2.26920e+08   2.25673e+08  1999224    0.55%
Elapsed time = 82.30 sec. (93107.08 ticks, tree = 35.45 MB, solutions = 22)
  80523 50593    infeasible         2.26920e+08   2.25673e+08  2084204    0.55%
  80524 50592    infeasible         2.26920e+08   2.25673e+08  2084204    0.55%
  80525 50591    infeasible         2.26920e+08   2.25673e+08  2084204    0.55%
  80526 50592   2.25673e+08    30   2.26920e+08   2.25673e+08  2084296    0.55%
  80527 50593   2.25673e+08    31   2.26920e+08   2.25673e+08  2084310    0.55%
  80528 50594   2.25673e+08    35   2.26920e+08   2.25673e+08  2084380    0.55%
  80529 50595   2.25673e+08    38   2.26920e+08   2.25673e+08  2084493    0.55%
  80530 50594        cutoff         2.26920e+08   2.25673e+08  2084552    0.55%
  80531 50595   2.25673e+08    38   2.26920e+08   2.25673e+08  2084570    0.55%
  80532 50596   2.25673e+08    36   2.26920e+08   2.25673e+08  2084599    0.55%
Elapsed time = 86.01 sec. (96938.80 ticks, tree = 36.19 MB, solutions = 22)
  83414 52137   2.26739e+08    45   2.26920e+08   2.25673e+08  2173881    0.55%
  83415 52136        cutoff         2.26920e+08   2.25673e+08  2173885    0.55%
  83416 52135        cutoff         2.26920e+08   2.25673e+08  2173992    0.55%
  83417 52134        cutoff         2.26920e+08   2.25673e+08  2174121    0.55%
  83418 52133    infeasible         2.26920e+08   2.25673e+08  2174121    0.55%
  83419 52132    infeasible         2.26920e+08   2.25673e+08  2174121    0.55%
  83420 52131    infeasible         2.26920e+08   2.25673e+08  2174121    0.55%
  83421 52132   2.25673e+08    28   2.26920e+08   2.25673e+08  2174142    0.55%
  83422 52133   2.26620e+08    21   2.26920e+08   2.25673e+08  2174435    0.55%
  83423 52132        cutoff         2.26920e+08   2.25673e+08  2174470    0.55%
Elapsed time = 89.71 sec. (100777.01 ticks, tree = 37.17 MB, solutions = 22)
  85401 53255   2.25931e+08    38   2.26920e+08   2.25673e+08  2251463    0.55%
  85402 53254        cutoff         2.26920e+08   2.25673e+08  2251473    0.55%
  85403 53255   2.25673e+08    25   2.26920e+08   2.25673e+08  2251516    0.55%
  85404 53256   2.25673e+08    23   2.26920e+08   2.25673e+08  2251519    0.55%
  85405 53257   2.25673e+08    23   2.26920e+08   2.25673e+08  2251536    0.55%
  85406 53258   2.25673e+08    23   2.26920e+08   2.25673e+08  2251544    0.55%
  85407 53259   2.25673e+08    22   2.26920e+08   2.25673e+08  2251546    0.55%
  85408 53260   2.25733e+08    44   2.26920e+08   2.25673e+08  2251772    0.55%
  85409 53261   2.25923e+08    35   2.26920e+08   2.25673e+08  2251876    0.55%
  85410 53260        cutoff         2.26920e+08   2.25673e+08  2251890    0.55%
Elapsed time = 93.49 sec. (104680.27 ticks, tree = 37.99 MB, solutions = 22)
  87001 53748   2.25673e+08    30   2.26920e+08   2.25673e+08  2308214    0.55%
  87002 53749   2.25673e+08    25   2.26920e+08   2.25673e+08  2308244    0.55%
  87003 53750   2.25673e+08    22   2.26920e+08   2.25673e+08  2308255    0.55%
  87004 53751   2.25673e+08    22   2.26920e+08   2.25673e+08  2308260    0.55%
  87005 53752   2.25673e+08    24   2.26920e+08   2.25673e+08  2308269    0.55%
  87006 53753   2.25673e+08    25   2.26920e+08   2.25673e+08  2308278    0.55%
  87007 53754   2.25673e+08    24   2.26920e+08   2.25673e+08  2308305    0.55%
  87008 53755   2.25673e+08    29   2.26920e+08   2.25673e+08  2308331    0.55%
  87009 53756   2.25673e+08    25   2.26920e+08   2.25673e+08  2308346    0.55%
  87010 53757   2.25673e+08    28   2.26920e+08   2.25673e+08  2308351    0.55%
Elapsed time = 96.84 sec. (108533.19 ticks, tree = 38.35 MB, solutions = 22)

Cover cuts applied:  451
Mixed integer rounding cuts applied:  13
Gomory fractional cuts applied:  11

Root node processing (before b&c):
  Real time             =    0.05 sec. (57.00 ticks)
Sequential b&c:
  Real time             =   99.95 sec. (112149.26 ticks)
                          ------------
Total (root+branch&cut) =  100.00 sec. (112206.27 ticks)

Solution pool: 22 solutions saved.

MIP - Time limit exceeded, integer feasible:  Objective =  2.2692008900e+08
Current MIP best bound =  2.2567326400e+08 (gap = 1.24682e+06, 0.55%)
Solution time =  100.00 sec.  Iterations = 2356617  Nodes = 88762 (54860)
Deterministic time = 112206.27 ticks  (1122.06 ticks/sec)


Incumbent solution written to file '/tmp/tmp8CV4wp.cplex.sol'.
